22      4       
14      14      15      16      
0       0       0       0       0       3       2       3       4       
2       0       9       6       0       1       15      
5       0       0       3       6       2       8       19      
6       0       7       10      0       3       5       7       17      
5       10      0       8       0       2       6       14      
8       0       0       3       0       3       9       13      21      
7       8       6       0       0       1       19      
6       0       10      6       8       2       10      11      
9       0       4       0       0       1       15      
1       0       6       0       10      2       14      17      
9       0       1       5       6       2       12      16      
5       0       1       0       0       1       21      
7       4       4       5       10      1       19      
3       0       0       2       0       2       15      18      
1       4       0       9       4       1       16      
4       9       6       5       8       1       20      
7       0       0       0       9       1       21      
8       0       0       5       6       1       20      
9       0       0       5       0       1       22      
2       8       4       0       0       1       22      
9       4       7       0       0       1       22      
0       0       0       0       0       0       